(set-logic QF_LIA)
(set-info :ran/ran2.smt2)
(set-info :smt-lib-version 2.0)
(declare-fun x1 () Int)
(declare-fun x2 () Int)
(declare-fun x3 () Int)
(assert (<= (+ (* (- 8) x1) (* 4 x2) (* (- 5) x3) ) (- 2)))
(assert (<= (+ (* 0 x1) (* 0 x2) (* 7 x3) ) (- 54)))
(assert (<= (+ (* (- 5) x1) (* 5 x2) (* (- 4) x3) ) 32))
(assert (<= (+ (* 1 x1) (* 10 x2) (* 6 x3) ) 9))
(assert (<= (+ (* 3 x1) (* 6 x2) (* 1 x3) ) (- 4)))
(assert (<= (+ (* (- 3) x1) (* (- 10) x2) (* (- 1) x3) ) 20))
(assert (<= (+ (* 1 x1) (* 0 x2) (* 0 x3) ) 56))
(assert (<= (+ (* (- 1) x1) (* 0 x2) (* 0 x3) ) 56))
(assert (<= (+ (* 0 x1) (* 1 x2) (* 0 x3) ) 56))
(assert (<= (+ (* 0 x1) (* (- 1) x2) (* 0 x3) ) 56))
(assert (<= (+ (* 0 x1) (* 0 x2) (* 1 x3) ) 56))
(assert (<= (+ (* 0 x1) (* 0 x2) (* (- 1) x3) ) 56))
